data/OOEBPP/R750/BPP_750_400_0.2_0.7_8.txt.ins
750
400 400
1 280 466
2 280 218
3 280 743
4 279 452
5 279 949
6 279 999
7 279 378
8 279 271
9 279 798
10 279 32
11 278 257
12 278 62
13 278 731
14 277 379
15 277 241
16 277 157
17 276 802
18 276 650
19 276 534
20 276 296
21 276 113
22 276 644
23 276 50
24 275 484
25 275 450
26 275 386
27 275 290
28 275 945
29 275 60
30 274 590
31 274 146
32 274 924
33 274 978
34 274 646
35 274 839
36 273 877
37 273 852
38 272 179
39 272 958
40 272 321
41 271 993
42 271 893
43 271 983
44 271 411
45 271 363
46 270 22
47 270 532
48 269 233
49 269 652
50 268 896
51 268 832
52 268 680
53 267 920
54 267 43
55 267 896
56 266 315
57 266 317
58 266 700
59 266 192
60 265 663
61 264 88
62 263 673
63 262 637
64 261 909
65 261 191
66 261 128
67 261 951
68 261 647
69 260 557
70 260 592
71 260 746
72 260 996
73 259 470
74 259 596
75 259 596
76 258 805
77 258 690
78 258 702
79 258 540
80 258 711
81 257 428
82 257 87
83 257 769
84 257 269
85 255 271
86 255 470
87 255 767
88 255 237
89 255 734
90 254 38
91 254 725
92 254 82
93 253 300
94 253 835
95 252 794
96 252 129
97 252 41
98 252 998
99 252 533
100 251 211
101 251 268
102 250 825
103 250 328
104 250 64
105 250 42
106 250 0
107 250 151
108 250 15
109 249 953
110 249 34
111 249 710
112 248 466
113 248 996
114 248 829
115 247 687
116 247 759
117 247 338
118 247 24
119 246 832
120 246 961
121 246 410
122 246 579
123 245 369
124 245 705
125 245 961
126 245 823
127 245 496
128 245 332
129 244 668
130 244 95
131 244 630
132 243 859
133 243 488
134 243 607
135 242 995
136 242 316
137 242 769
138 242 372
139 242 426
140 242 797
141 242 898
142 242 781
143 241 594
144 241 398
145 240 87
146 240 82
147 240 604
148 239 31
149 239 504
150 239 450
151 239 643
152 239 25
153 239 751
154 239 170
155 238 418
156 238 151
157 238 501
158 237 489
159 237 616
160 237 584
161 237 985
162 236 168
163 236 308
164 236 575
165 236 428
166 235 785
167 235 323
168 235 154
169 235 16
170 235 236
171 234 330
172 234 559
173 234 392
174 234 996
175 234 543
176 233 73
177 233 485
178 233 746
179 233 813
180 233 553
181 232 574
182 232 890
183 232 347
184 232 9
185 232 363
186 231 547
187 231 827
188 230 945
189 230 342
190 230 788
191 230 915
192 230 14
193 230 321
194 230 255
195 229 600
196 229 172
197 229 909
198 229 610
199 229 103
200 229 889
201 229 149
202 229 952
203 228 972
204 228 991
205 228 14
206 227 256
207 227 888
208 227 899
209 226 463
210 226 79
211 226 295
212 226 356
213 225 193
214 225 349
215 225 317
216 224 149
217 224 821
218 223 585
219 223 240
220 223 324
221 222 202
222 222 39
223 222 374
224 222 537
225 221 183
226 221 522
227 221 222
228 221 353
229 221 29
230 220 138
231 220 36
232 219 691
233 219 750
234 218 99
235 218 411
236 218 590
237 218 413
238 217 161
239 217 176
240 217 585
241 217 833
242 217 458
243 217 535
244 216 529
245 216 715
246 216 615
247 216 163
248 215 26
249 215 790
250 215 769
251 215 626
252 215 952
253 214 907
254 214 580
255 214 715
256 213 342
257 213 637
258 212 115
259 212 524
260 211 961
261 211 15
262 211 943
263 211 709
264 210 748
265 210 319
266 209 239
267 209 484
268 208 741
269 208 48
270 208 854
271 207 440
272 207 708
273 207 483
274 206 542
275 206 940
276 206 809
277 205 93
278 205 489
279 205 352
280 205 892
281 204 416
282 204 254
283 204 351
284 204 791
285 204 416
286 204 160
287 204 338
288 203 759
289 203 386
290 203 634
291 203 342
292 202 708
293 202 677
294 202 702
295 201 761
296 200 699
297 200 396
298 200 69
299 199 29
300 199 422
301 199 302
302 199 254
303 198 877
304 198 175
305 198 674
306 198 970
307 198 265
308 198 630
309 197 366
310 197 136
311 196 830
312 196 163
313 196 71
314 196 464
315 196 356
316 196 306
317 195 227
318 195 250
319 195 281
320 195 781
321 195 965
322 195 930
323 194 874
324 194 107
325 194 150
326 194 740
327 194 141
328 193 126
329 193 927
330 193 346
331 193 435
332 193 275
333 192 490
334 192 686
335 192 972
336 191 388
337 191 477
338 191 205
339 191 722
340 191 969
341 191 154
342 191 166
343 190 849
344 190 918
345 190 831
346 190 318
347 189 207
348 189 983
349 189 125
350 189 922
351 189 641
352 188 928
353 188 822
354 188 498
355 188 560
356 187 499
357 187 995
358 187 264
359 187 389
360 186 662
361 186 415
362 186 833
363 186 203
364 186 782
365 186 607
366 184 584
367 184 966
368 184 726
369 184 50
370 184 769
371 184 489
372 182 258
373 182 67
374 182 791
375 181 895
376 181 607
377 181 706
378 180 558
379 180 133
380 180 511
381 179 958
382 179 368
383 178 300
384 178 700
385 178 893
386 177 618
387 177 132
388 177 490
389 177 608
390 176 178
391 176 491
392 176 590
393 176 276
394 176 778
395 176 532
396 176 450
397 176 874
398 175 940
399 175 719
400 174 307
401 174 292
402 174 909
403 174 234
404 173 288
405 173 462
406 173 847
407 172 326
408 172 89
409 172 670
410 172 176
411 171 404
412 171 631
413 169 785
414 169 498
415 168 908
416 168 677
417 168 356
418 167 114
419 167 606
420 166 525
421 166 670
422 166 532
423 166 586
424 166 623
425 165 242
426 165 807
427 165 368
428 165 848
429 165 382
430 165 775
431 165 642
432 164 696
433 164 427
434 163 141
435 163 678
436 163 876
437 163 969
438 163 330
439 162 509
440 162 571
441 161 210
442 161 261
443 161 250
444 160 210
445 160 721
446 159 323
447 159 894
448 159 358
449 159 673
450 158 702
451 158 998
452 158 579
453 157 284
454 157 259
455 157 431
456 156 893
457 156 265
458 156 863
459 156 377
460 156 619
461 156 273
462 156 452
463 156 66
464 156 389
465 155 753
466 155 726
467 154 321
468 154 562
469 154 824
470 154 803
471 154 585
472 154 657
473 154 536
474 153 615
475 152 467
476 151 577
477 151 533
478 151 116
479 150 61
480 150 459
481 150 493
482 149 658
483 149 1
484 149 802
485 149 466
486 149 624
487 149 477
488 148 628
489 148 782
490 148 485
491 148 379
492 148 123
493 147 616
494 147 330
495 146 157
496 146 846
497 145 630
498 145 451
499 145 15
500 145 678
501 144 960
502 144 301
503 144 396
504 144 353
505 144 806
506 143 858
507 143 586
508 143 860
509 143 941
510 143 815
511 143 529
512 143 531
513 142 401
514 142 699
515 141 126
516 141 785
517 141 262
518 141 817
519 140 659
520 140 554
521 139 601
522 139 2
523 139 319
524 139 40
525 138 455
526 138 858
527 138 288
528 138 322
529 137 262
530 136 276
531 136 909
532 136 637
533 135 231
534 135 517
535 135 803
536 134 253
537 134 407
538 134 104
539 134 958
540 133 419
541 133 562
542 133 381
543 133 997
544 133 41
545 132 628
546 132 377
547 132 212
548 132 123
549 131 453
550 131 366
551 131 681
552 130 546
553 130 27
554 130 673
555 130 622
556 129 866
557 129 111
558 129 468
559 129 339
560 128 170
561 128 916
562 127 659
563 127 805
564 127 224
565 127 728
566 127 636
567 126 330
568 126 26
569 126 301
570 126 514
571 126 774
572 125 111
573 125 89
574 125 446
575 124 490
576 124 782
577 124 734
578 123 26
579 123 790
580 123 298
581 122 338
582 122 866
583 122 319
584 122 793
585 122 710
586 122 815
587 121 509
588 121 717
589 121 961
590 121 744
591 121 713
592 120 470
593 120 833
594 120 837
595 120 887
596 119 853
597 119 886
598 119 490
599 119 81
600 118 551
601 118 651
602 117 748
603 117 659
604 117 812
605 117 621
606 117 663
607 116 798
608 116 713
609 115 264
610 115 880
611 115 968
612 115 538
613 115 120
614 114 329
615 113 587
616 113 766
617 112 28
618 112 260
619 111 309
620 110 183
621 110 147
622 109 936
623 108 74
624 108 860
625 108 836
626 108 548
627 108 428
628 108 878
629 107 987
630 107 30
631 107 783
632 107 981
633 107 667
634 106 121
635 106 529
636 106 17
637 106 295
638 105 364
639 105 182
640 105 191
641 105 100
642 105 293
643 105 174
644 105 857
645 105 144
646 104 64
647 104 454
648 103 512
649 103 181
650 103 211
651 103 574
652 103 952
653 102 799
654 102 236
655 102 488
656 102 753
657 102 837
658 102 107
659 102 234
660 101 613
661 101 573
662 101 660
663 101 193
664 100 173
665 100 627
666 100 782
667 100 448
668 100 160
669 99 369
670 99 615
671 99 134
672 99 277
673 99 285
674 99 118
675 98 650
676 98 467
677 98 626
678 97 531
679 97 505
680 97 973
681 97 432
682 97 377
683 97 110
684 96 615
685 96 500
686 96 551
687 96 198
688 96 96
689 96 839
690 96 982
691 96 587
692 95 439
693 95 334
694 95 931
695 95 844
696 95 933
697 95 311
698 94 926
699 94 670
700 93 874
701 93 236
702 92 144
703 92 949
704 92 584
705 92 761
706 91 579
707 91 928
708 90 156
709 90 893
710 89 125
711 89 897
712 89 288
713 88 696
714 88 175
715 88 126
716 88 779
717 88 204
718 88 587
719 87 257
720 87 894
721 86 899
722 86 154
723 85 565
724 85 837
725 85 461
726 84 378
727 84 985
728 84 374
729 84 224
730 84 303
731 84 296
732 84 555
733 83 711
734 83 408
735 83 258
736 83 393
737 83 844
738 83 729
739 82 245
740 82 730
741 82 743
742 82 114
743 81 505
744 81 772
745 81 311
746 81 37
747 80 820
748 80 575
749 80 678
750 80 653
