results/OOEBPP/BPP_750_400_0.2_0.7_8.txt.ins.log
207,206.968,66.8711,OPT,9260,0,0,AI,0,0.0386473,3.19324,0.580782,65.2458,0,2,0,88,88
